5 6 113
3 3 1 5 2 3 3 13 46 46 73 73 109 
4 5 1 1 1 3 2 4 2 18 30 30 51 51 66 66 111 
3 2 1 2 2 2 3 5 53 53 71 71 113 
3 4 1 1 2 1 3 7 25 54 84 84 111 
7 2 1 3 1 3 1 1 1 1 1 4 2 4 2 0 5 5 11 11 13 13 22 22 26 26 29 29 35 
8 4 1 5 1 5 1 5 2 3 2 1 2 3 3 3 3 0 7 7 14 14 18 30 37 46 48 51 54 60 66 66 73 
